DATASET = "thpack1";
INSTANCE = "087";

WIDTH = 233;
HEIGHT = 220;
LENGTH = 587;

NO_OF_SHAPES = 3;
size = [|
  119,34,28 |
  84,69,48 |
  97,82,78 |
|];

verticality = [|
  0,1,1 |
  1,1,1 |
  1,1,1 |
|];

box_count = [
  39,
  32,
  27,
];
